DIMENSION: 8
EDGE_WEIGHT_TYPE: EXPLICIT
EDGE_WEIGHT_FORMAT: FULL_MATRIX
EDGE_WEIGHT_SECTION:
32767 32767 32767 32767 18 32767 32767 32767 
32767 32767 32767 32767 32767 32767 32767 32767 
32767 32767 32767 32767 59 32767 32767 32767 
32767 32767 32767 32767 32767 3 32767 32767 
18 32767 59 32767 32767 32767 32767 15 
32767 32767 32767 3 32767 32767 32767 16 
32767 32767 32767 32767 32767 32767 32767 89 
32767 32767 32767 32767 15 16 89 32767 
EOF